
Gurobi 9.5.0 (linux64) logging started Fri Nov 26 08:09:34 2021

Set parameter LogFile to value "results/max3cut_numv144/max3cut_numv144_spinglass2pm_1212_A-MILO_log.txt"
Gurobi Optimizer version 9.5.0 build v9.5.0rc5 (linux64)
Thread count: 20 physical cores, 40 logical processors, using up to 10 threads
Optimize a model with 3024 rows, 720 columns and 8496 nonzeros
Model fingerprint: 0xb0a07091
Variable types: 0 continuous, 720 integer (720 binary)
Coefficient statistics:
  Matrix range     [1e+00, 1e+00]
  Objective range  [1e+00, 1e+00]
  Bounds range     [1e+00, 1e+00]
  RHS range        [1e+00, 2e+00]
Found heuristic solution: objective 1.0000000
Presolve removed 325 rows and 7 columns
Presolve time: 0.01s
Presolved: 2699 rows, 713 columns, 8097 nonzeros
Crushed 0 out of 288 user cuts to presolved model
Variable types: 0 continuous, 713 integer (713 binary)

Root relaxation: objective 1.420000e+02, 453 iterations, 0.01 seconds (0.01 work units)

    Nodes    |    Current Node    |     Objective Bounds      |     Work
 Expl Unexpl |  Obj  Depth IntInf | Incumbent    BestBd   Gap | It/Node Time

     0     0  142.00000    0  252    1.00000  142.00000      -     -    0s
H    0     0                      86.0000000  142.00000  65.1%     -    0s
H    0     0                      95.0000000  142.00000  49.5%     -    0s
     0     0  140.00000    0  315   95.00000  140.00000  47.4%     -    0s
H    0     0                      97.0000000  140.00000  44.3%     -    0s
     0     0  140.00000    0  322   97.00000  140.00000  44.3%     -    0s
     0     0  136.98892    0  442   97.00000  136.98892  41.2%     -    0s
H    0     0                      98.0000000  136.98892  39.8%     -    0s
     0     0  136.61094    0  441   98.00000  136.61094  39.4%     -    0s
     0     0  136.47024    0  437   98.00000  136.47024  39.3%     -    0s
     0     0  136.47024    0  436   98.00000  136.47024  39.3%     -    0s
H    0     0                     104.0000000  133.62766  28.5%     -    0s
     0     0  133.62766    0  442  104.00000  133.62766  28.5%     -    0s
H    0     0                     106.0000000  133.62766  26.1%     -    0s
H    0     0                     107.0000000  133.47066  24.7%     -    0s
     0     0  133.47066    0  442  107.00000  133.47066  24.7%     -    0s
     0     0  133.41590    0  445  107.00000  133.41590  24.7%     -    0s
     0     0  133.41204    0  443  107.00000  133.41204  24.7%     -    0s
     0     0  133.41168    0  440  107.00000  133.41168  24.7%     -    0s
H    0     0                     108.0000000  131.08590  21.4%     -    0s
H    0     0                     109.0000000  131.08590  20.3%     -    0s
     0     0  131.08590    0  453  109.00000  131.08590  20.3%     -    0s
H    0     0                     110.0000000  131.04530  19.1%     -    0s
     0     0  131.04530    0  444  110.00000  131.04530  19.1%     -    0s
     0     0  131.03221    0  450  110.00000  131.03221  19.1%     -    0s
     0     0  131.02953    0  445  110.00000  131.02953  19.1%     -    0s
     0     0  131.02842    0  444  110.00000  131.02842  19.1%     -    0s
     0     0  130.66667    0  409  110.00000  130.66667  18.8%     -    0s
H    0     0                     111.0000000  130.66667  17.7%     -    0s
     0     0  130.58485    0  443  111.00000  130.58485  17.6%     -    0s
     0     0  130.56806    0  439  111.00000  130.56806  17.6%     -    0s
     0     0  130.56806    0  438  111.00000  130.56806  17.6%     -    0s
     0     0  130.27516    0  458  111.00000  130.27516  17.4%     -    0s
     0     0  130.24127    0  461  111.00000  130.24127  17.3%     -    0s
     0     0  130.23115    0  459  111.00000  130.23115  17.3%     -    0s
     0     0  130.22917    0  459  111.00000  130.22917  17.3%     -    0s
     0     0  130.14030    0  458  111.00000  130.14030  17.2%     -    0s
     0     0  130.13592    0  461  111.00000  130.13592  17.2%     -    0s
     0     0  130.13381    0  462  111.00000  130.13381  17.2%     -    0s
     0     0  130.12619    0  459  111.00000  130.12619  17.2%     -    0s
     0     0  130.12619    0  461  111.00000  130.12619  17.2%     -    0s
     0     0  130.12619    0  456  111.00000  130.12619  17.2%     -    0s
     0     0  130.12619    0  444  111.00000  130.12619  17.2%     -    0s
     0     0  129.95952    0  442  111.00000  129.95952  17.1%     -    0s
     0     0  129.91840    0  432  111.00000  129.91840  17.0%     -    0s
H    0     0                     115.0000000  129.91840  13.0%     -    0s
     0     0  129.91840    0  434  115.00000  129.91840  13.0%     -    0s
     0     0  129.64305    0  444  115.00000  129.64305  12.7%     -    0s
     0     0  129.62144    0  452  115.00000  129.62144  12.7%     -    0s
     0     0  129.61047    0  459  115.00000  129.61047  12.7%     -    0s
     0     0  129.60990    0  459  115.00000  129.60990  12.7%     -    0s
     0     0  129.52704    0  462  115.00000  129.52704  12.6%     -    0s
     0     0  129.35833    0  466  115.00000  129.35833  12.5%     -    0s
     0     0  129.35833    0  470  115.00000  129.35833  12.5%     -    0s
     0     0  129.35833    0  468  115.00000  129.35833  12.5%     -    0s
     0     0  129.35833    0  465  115.00000  129.35833  12.5%     -    0s
     0     0  129.35279    0  456  115.00000  129.35279  12.5%     -    0s
     0     0  129.35279    0  456  115.00000  129.35279  12.5%     -    0s
     0     0  129.17628    0  457  115.00000  129.17628  12.3%     -    1s
H    0     0                     117.0000000  129.17628  10.4%     -    1s
     0     0  129.17628    0  460  117.00000  129.17628  10.4%     -    1s
     0     0  129.17628    0  456  117.00000  129.17628  10.4%     -    1s
     0     0  129.17628    0  456  117.00000  129.17628  10.4%     -    1s
     0     0  129.17628    0  455  117.00000  129.17628  10.4%     -    1s
     0     0  129.17628    0  438  117.00000  129.17628  10.4%     -    1s
H    0     0                     118.0000000  129.17628  9.47%     -    1s
     0     2  129.17628    0  438  118.00000  129.17628  9.47%     -    1s
H   44    46                     119.0000000  127.65000  7.27%   203    1s
H 1636   878                     120.0000000  126.22860  5.19%  69.1    3s

Cutting planes:
  Gomory: 8
  MIR: 5
  Flow cover: 6
  Zero half: 10
  RLT: 3

Explored 1661 nodes (132462 simplex iterations) in 4.48 seconds (4.43 work units)
Thread count was 10 (of 40 available processors)

Solution count 10: 120 119 118 ... 107

Optimal solution found (tolerance 0.00e+00)
Best objective 1.200000000000e+02, best bound 1.200000000000e+02, gap 0.0000%
